NAME: ../File/prFile/tspFile/tsp_file9.tsp
COMMENT: TSP file generated by Python
TYPE: TSP
DIMENSION: 30
EDGE_WEIGHT_TYPE: EUC_2D
NODE_COORD_SECTION
1 61 65
2 8 2
3 51 62
4 37 65
5 47 71
6 58 20
7 2 21
8 85 7
9 52 81
10 60 66
11 2 33
12 36 34
13 16 21
14 76 49
15 75 17
16 64 6
17 74 12
18 49 48
19 40 33
20 6 51
21 54 90
22 2 66
23 39 40
24 54 94
25 22 15
26 25 85
27 70 18
28 35 11
29 79 12
30 60 48
EOF
